Ti   Ba   O
   1.00000000000000
2.82453804  2.82453804  0.
-1.6307478    1.6307478    3.26149559
2.32874231  -2.32874231   2.32874231
Ti   Ba   O
1  1  3
Direct
  0.5000000000000000  0.5000000000000000  0.5142700000000000
  0.0000000000000000 -0.0000000000000000  0.0000000000000000
  0.5000000000000000  0.5000000000000000  0.9744770000000000
  0.5000000000000000  0.0000000000000000  0.4876180000000000
  0.0000000000000000  0.5000000000000000  0.4876180000000000
