num_wann        =  3
num_bands       =  3 
num_iter        = 0
exclude_bands:1-20,24-40

#dis_win_min = -2
#dis_win_max = 12
#dis_froz_min = -2
#dis_froz_max = 8

begin projections
Ti:dxy:z=0.57745278, -0.57745278,  0.57714519:x=0.70710678,  0.70710678,  0.
Ti:dyz:z=0.57745278, -0.57745278,  0.57714519:x=0.70710678,  0.70710678,  0.
Ti:dxz:z=0.57745278, -0.57745278,  0.57714519:x=0.70710678,  0.70710678,  0.
end projections

wannier_plot = true
wannier_plot_list = 1 2 3
wannier_plot_supercell = 1 1 1

restart = plot
bands_plot = true
bands_num_points = 1000
bands_plot_format = gnuplot

kpath = true
kpath_task = bands
#kpath_bands_colour = spin
kpath_num_points=500
begin kpoint_path
G 0.00000  0.00000 0.0000 Y 0.50000  0.00000 0.0000
Y 0.50000  0.00000 0.0000 M 0.50000  0.50000 0.0000
M 0.50000  0.50000 0.0000 K 0.50000  0.50000 0.5000
K 0.50000  0.50000 0.5000 G 0.00000  0.00000 0.0000
end kpoint_path


begin unit_cell_cart
     2.8245380     2.8245380     0.0000000
    -1.6307478     1.6307478     3.2614956
     2.3287423    -2.3287423     2.3287423
end unit_cell_cart

begin atoms_cart
Ti       1.7944974     1.0300406     2.8283501
Ba       0.0000000     0.0000000     0.0000000
O        2.8662009    -0.0416629     3.9000536
O        2.5478057     0.2767324     1.1355367
O        0.3201628    -0.3201628     2.7662845
end atoms_cart

mp_grid =     9     9     9

begin kpoints
      0.000000000000      0.000000000000      0.000000000000
      0.111111111111      0.000000000000      0.000000000000
      0.222222222222      0.000000000000      0.000000000000
      0.333333333333      0.000000000000      0.000000000000
      0.444444444444      0.000000000000      0.000000000000
      0.111111111111      0.111111111111      0.000000000000
      0.222222222222      0.111111111111      0.000000000000
      0.333333333333      0.111111111111      0.000000000000
      0.444444444444      0.111111111111     -0.000000000000
      0.222222222222      0.222222222222      0.000000000000
      0.333333333333      0.222222222222      0.000000000000
      0.444444444444      0.222222222222     -0.000000000000
      0.333333333333      0.333333333333      0.000000000000
      0.444444444444      0.333333333333      0.000000000000
      0.444444444444      0.444444444444      0.000000000000
      0.000000000000      0.000000000000      0.111111111111
      0.111111111111     -0.000000000000      0.111111111111
      0.222222222222     -0.000000000000      0.111111111111
      0.333333333333      0.000000000000      0.111111111111
      0.444444444444      0.000000000000      0.111111111111
      0.111111111111      0.111111111111      0.111111111111
      0.222222222222      0.111111111111      0.111111111111
      0.333333333333      0.111111111111      0.111111111111
      0.444444444444      0.111111111111      0.111111111111
      0.222222222222      0.222222222222      0.111111111111
      0.333333333333      0.222222222222      0.111111111111
      0.444444444444      0.222222222222      0.111111111111
      0.333333333333      0.333333333333      0.111111111111
      0.444444444444      0.333333333333      0.111111111111
      0.444444444444      0.444444444444      0.111111111111
      0.000000000000      0.000000000000      0.222222222222
      0.111111111111      0.000000000000      0.222222222222
      0.222222222222      0.000000000000      0.222222222222
      0.333333333333     -0.000000000000      0.222222222222
      0.444444444444      0.000000000000      0.222222222222
      0.111111111111      0.111111111111      0.222222222222
      0.222222222222      0.111111111111      0.222222222222
      0.333333333333      0.111111111111      0.222222222222
      0.444444444444      0.111111111111      0.222222222222
      0.222222222222      0.222222222222      0.222222222222
      0.333333333333      0.222222222222      0.222222222222
      0.444444444444      0.222222222222      0.222222222222
      0.333333333333      0.333333333333      0.222222222222
      0.444444444444      0.333333333333      0.222222222222
      0.444444444444      0.444444444444      0.222222222222
      0.000000000000     -0.000000000000      0.333333333333
      0.111111111111     -0.000000000000      0.333333333333
      0.222222222222     -0.000000000000      0.333333333333
      0.333333333333      0.000000000000      0.333333333333
      0.444444444444      0.000000000000      0.333333333333
      0.111111111111      0.111111111111      0.333333333333
      0.222222222222      0.111111111111      0.333333333333
      0.333333333333      0.111111111111      0.333333333333
      0.444444444444      0.111111111111      0.333333333333
      0.222222222222      0.222222222222      0.333333333333
      0.333333333333      0.222222222222      0.333333333333
      0.444444444444      0.222222222222      0.333333333333
      0.333333333333      0.333333333333      0.333333333333
      0.444444444444      0.333333333333      0.333333333333
      0.444444444444      0.444444444444      0.333333333333
      0.000000000000      0.000000000000      0.444444444444
      0.111111111111      0.000000000000      0.444444444444
      0.222222222222     -0.000000000000      0.444444444444
      0.333333333333     -0.000000000000      0.444444444444
      0.444444444444      0.000000000000      0.444444444444
      0.111111111111      0.111111111111      0.444444444444
      0.222222222222      0.111111111111      0.444444444444
      0.333333333333      0.111111111111      0.444444444444
      0.444444444444      0.111111111111      0.444444444444
      0.222222222222      0.222222222222      0.444444444444
      0.333333333333      0.222222222222      0.444444444444
      0.444444444444      0.222222222222      0.444444444444
      0.333333333333      0.333333333333      0.444444444444
      0.444444444444      0.333333333333      0.444444444444
      0.444444444444      0.444444444444      0.444444444444
      0.000000000000      0.111111111111      0.000000000000
     -0.111111111111      0.000000000000      0.000000000000
      0.000000000000     -0.111111111111      0.000000000000
      0.000000000000      0.222222222222      0.000000000000
     -0.222222222222      0.000000000000      0.000000000000
      0.000000000000     -0.222222222222      0.000000000000
      0.000000000000      0.333333333333      0.000000000000
     -0.333333333333      0.000000000000      0.000000000000
      0.000000000000     -0.333333333333      0.000000000000
      0.000000000000      0.444444444444      0.000000000000
     -0.444444444444      0.000000000000      0.000000000000
      0.000000000000     -0.444444444444      0.000000000000
     -0.111111111111      0.111111111111      0.000000000000
     -0.111111111111     -0.111111111111      0.000000000000
      0.111111111111     -0.111111111111      0.000000000000
     -0.111111111111      0.222222222222      0.000000000000
     -0.222222222222     -0.111111111111      0.000000000000
      0.111111111111     -0.222222222222      0.000000000000
      0.222222222222     -0.111111111111      0.000000000000
     -0.111111111111     -0.222222222222      0.000000000000
     -0.222222222222      0.111111111111      0.000000000000
      0.111111111111      0.222222222222      0.000000000000
     -0.111111111111      0.333333333333      0.000000000000
     -0.333333333333     -0.111111111111      0.000000000000
      0.111111111111     -0.333333333333      0.000000000000
      0.333333333333     -0.111111111111      0.000000000000
     -0.111111111111     -0.333333333333      0.000000000000
     -0.333333333333      0.111111111111      0.000000000000
      0.111111111111      0.333333333333      0.000000000000
     -0.111111111111      0.444444444444     -0.000000000000
     -0.444444444444     -0.111111111111     -0.000000000000
      0.111111111111     -0.444444444444     -0.000000000000
      0.444444444444     -0.111111111111     -0.000000000000
     -0.111111111111     -0.444444444444     -0.000000000000
     -0.444444444444      0.111111111111     -0.000000000000
      0.111111111111      0.444444444444     -0.000000000000
     -0.222222222222      0.222222222222      0.000000000000
     -0.222222222222     -0.222222222222      0.000000000000
      0.222222222222     -0.222222222222      0.000000000000
     -0.222222222222      0.333333333333      0.000000000000
     -0.333333333333     -0.222222222222      0.000000000000
      0.222222222222     -0.333333333333      0.000000000000
      0.333333333333     -0.222222222222      0.000000000000
     -0.222222222222     -0.333333333333      0.000000000000
     -0.333333333333      0.222222222222      0.000000000000
      0.222222222222      0.333333333333      0.000000000000
     -0.222222222222      0.444444444444     -0.000000000000
     -0.444444444444     -0.222222222222     -0.000000000000
      0.222222222222     -0.444444444444     -0.000000000000
      0.444444444444     -0.222222222222     -0.000000000000
     -0.222222222222     -0.444444444444     -0.000000000000
     -0.444444444444      0.222222222222     -0.000000000000
      0.222222222222      0.444444444444     -0.000000000000
     -0.333333333333      0.333333333333      0.000000000000
     -0.333333333333     -0.333333333333      0.000000000000
      0.333333333333     -0.333333333333      0.000000000000
     -0.333333333333      0.444444444444      0.000000000000
     -0.444444444444     -0.333333333333      0.000000000000
      0.333333333333     -0.444444444444      0.000000000000
      0.444444444444     -0.333333333333      0.000000000000
     -0.333333333333     -0.444444444444      0.000000000000
     -0.444444444444      0.333333333333      0.000000000000
      0.333333333333      0.444444444444      0.000000000000
     -0.444444444444      0.444444444444      0.000000000000
     -0.444444444444     -0.444444444444      0.000000000000
      0.444444444444     -0.444444444444      0.000000000000
      0.000000000000      0.111111111111      0.111111111111
     -0.111111111111      0.000000000000      0.111111111111
     -0.000000000000     -0.111111111111      0.111111111111
      0.000000000000      0.222222222222      0.111111111111
     -0.222222222222      0.000000000000      0.111111111111
     -0.000000000000     -0.222222222222      0.111111111111
     -0.000000000000      0.333333333333      0.111111111111
     -0.333333333333     -0.000000000000      0.111111111111
      0.000000000000     -0.333333333333      0.111111111111
     -0.000000000000      0.444444444444      0.111111111111
     -0.444444444444     -0.000000000000      0.111111111111
      0.000000000000     -0.444444444444      0.111111111111
     -0.111111111111      0.111111111111      0.111111111111
     -0.111111111111     -0.111111111111      0.111111111111
      0.111111111111     -0.111111111111      0.111111111111
     -0.111111111111      0.222222222222      0.111111111111
     -0.222222222222     -0.111111111111      0.111111111111
      0.111111111111     -0.222222222222      0.111111111111
      0.222222222222     -0.111111111111      0.111111111111
     -0.111111111111     -0.222222222222      0.111111111111
     -0.222222222222      0.111111111111      0.111111111111
      0.111111111111      0.222222222222      0.111111111111
     -0.111111111111      0.333333333333      0.111111111111
     -0.333333333333     -0.111111111111      0.111111111111
      0.111111111111     -0.333333333333      0.111111111111
      0.333333333333     -0.111111111111      0.111111111111
     -0.111111111111     -0.333333333333      0.111111111111
     -0.333333333333      0.111111111111      0.111111111111
      0.111111111111      0.333333333333      0.111111111111
     -0.111111111111      0.444444444444      0.111111111111
     -0.444444444444     -0.111111111111      0.111111111111
      0.111111111111     -0.444444444444      0.111111111111
      0.444444444444     -0.111111111111      0.111111111111
     -0.111111111111     -0.444444444444      0.111111111111
     -0.444444444444      0.111111111111      0.111111111111
      0.111111111111      0.444444444444      0.111111111111
     -0.222222222222      0.222222222222      0.111111111111
     -0.222222222222     -0.222222222222      0.111111111111
      0.222222222222     -0.222222222222      0.111111111111
     -0.222222222222      0.333333333333      0.111111111111
     -0.333333333333     -0.222222222222      0.111111111111
      0.222222222222     -0.333333333333      0.111111111111
      0.333333333333     -0.222222222222      0.111111111111
     -0.222222222222     -0.333333333333      0.111111111111
     -0.333333333333      0.222222222222      0.111111111111
      0.222222222222      0.333333333333      0.111111111111
     -0.222222222222      0.444444444444      0.111111111111
     -0.444444444444     -0.222222222222      0.111111111111
      0.222222222222     -0.444444444444      0.111111111111
      0.444444444444     -0.222222222222      0.111111111111
     -0.222222222222     -0.444444444444      0.111111111111
     -0.444444444444      0.222222222222      0.111111111111
      0.222222222222      0.444444444444      0.111111111111
     -0.333333333333      0.333333333333      0.111111111111
     -0.333333333333     -0.333333333333      0.111111111111
      0.333333333333     -0.333333333333      0.111111111111
     -0.333333333333      0.444444444444      0.111111111111
     -0.444444444444     -0.333333333333      0.111111111111
      0.333333333333     -0.444444444444      0.111111111111
      0.444444444444     -0.333333333333      0.111111111111
     -0.333333333333     -0.444444444444      0.111111111111
     -0.444444444444      0.333333333333      0.111111111111
      0.333333333333      0.444444444444      0.111111111111
     -0.444444444444      0.444444444444      0.111111111111
     -0.444444444444     -0.444444444444      0.111111111111
      0.444444444444     -0.444444444444      0.111111111111
      0.000000000000      0.111111111111      0.222222222222
     -0.111111111111      0.000000000000      0.222222222222
      0.000000000000     -0.111111111111      0.222222222222
      0.000000000000      0.222222222222      0.222222222222
     -0.222222222222      0.000000000000      0.222222222222
      0.000000000000     -0.222222222222      0.222222222222
      0.000000000000      0.333333333333      0.222222222222
     -0.333333333333      0.000000000000      0.222222222222
     -0.000000000000     -0.333333333333      0.222222222222
      0.000000000000      0.444444444444      0.222222222222
     -0.444444444444      0.000000000000      0.222222222222
      0.000000000000     -0.444444444444      0.222222222222
     -0.111111111111      0.111111111111      0.222222222222
     -0.111111111111     -0.111111111111      0.222222222222
      0.111111111111     -0.111111111111      0.222222222222
     -0.111111111111      0.222222222222      0.222222222222
     -0.222222222222     -0.111111111111      0.222222222222
      0.111111111111     -0.222222222222      0.222222222222
      0.222222222222     -0.111111111111      0.222222222222
     -0.111111111111     -0.222222222222      0.222222222222
     -0.222222222222      0.111111111111      0.222222222222
      0.111111111111      0.222222222222      0.222222222222
     -0.111111111111      0.333333333333      0.222222222222
     -0.333333333333     -0.111111111111      0.222222222222
      0.111111111111     -0.333333333333      0.222222222222
      0.333333333333     -0.111111111111      0.222222222222
     -0.111111111111     -0.333333333333      0.222222222222
     -0.333333333333      0.111111111111      0.222222222222
      0.111111111111      0.333333333333      0.222222222222
     -0.111111111111      0.444444444444      0.222222222222
     -0.444444444444     -0.111111111111      0.222222222222
      0.111111111111     -0.444444444444      0.222222222222
      0.444444444444     -0.111111111111      0.222222222222
     -0.111111111111     -0.444444444444      0.222222222222
     -0.444444444444      0.111111111111      0.222222222222
      0.111111111111      0.444444444444      0.222222222222
     -0.222222222222      0.222222222222      0.222222222222
     -0.222222222222     -0.222222222222      0.222222222222
      0.222222222222     -0.222222222222      0.222222222222
     -0.222222222222      0.333333333333      0.222222222222
     -0.333333333333     -0.222222222222      0.222222222222
      0.222222222222     -0.333333333333      0.222222222222
      0.333333333333     -0.222222222222      0.222222222222
     -0.222222222222     -0.333333333333      0.222222222222
     -0.333333333333      0.222222222222      0.222222222222
      0.222222222222      0.333333333333      0.222222222222
     -0.222222222222      0.444444444444      0.222222222222
     -0.444444444444     -0.222222222222      0.222222222222
      0.222222222222     -0.444444444444      0.222222222222
      0.444444444444     -0.222222222222      0.222222222222
     -0.222222222222     -0.444444444444      0.222222222222
     -0.444444444444      0.222222222222      0.222222222222
      0.222222222222      0.444444444444      0.222222222222
     -0.333333333333      0.333333333333      0.222222222222
     -0.333333333333     -0.333333333333      0.222222222222
      0.333333333333     -0.333333333333      0.222222222222
     -0.333333333333      0.444444444444      0.222222222222
     -0.444444444444     -0.333333333333      0.222222222222
      0.333333333333     -0.444444444444      0.222222222222
      0.444444444444     -0.333333333333      0.222222222222
     -0.333333333333     -0.444444444444      0.222222222222
     -0.444444444444      0.333333333333      0.222222222222
      0.333333333333      0.444444444444      0.222222222222
     -0.444444444444      0.444444444444      0.222222222222
     -0.444444444444     -0.444444444444      0.222222222222
      0.444444444444     -0.444444444444      0.222222222222
      0.000000000000      0.111111111111      0.333333333333
     -0.111111111111      0.000000000000      0.333333333333
     -0.000000000000     -0.111111111111      0.333333333333
      0.000000000000      0.222222222222      0.333333333333
     -0.222222222222      0.000000000000      0.333333333333
     -0.000000000000     -0.222222222222      0.333333333333
      0.000000000000      0.333333333333      0.333333333333
     -0.333333333333      0.000000000000      0.333333333333
      0.000000000000     -0.333333333333      0.333333333333
      0.000000000000      0.444444444444      0.333333333333
     -0.444444444444      0.000000000000      0.333333333333
      0.000000000000     -0.444444444444      0.333333333333
     -0.111111111111      0.111111111111      0.333333333333
     -0.111111111111     -0.111111111111      0.333333333333
      0.111111111111     -0.111111111111      0.333333333333
     -0.111111111111      0.222222222222      0.333333333333
     -0.222222222222     -0.111111111111      0.333333333333
      0.111111111111     -0.222222222222      0.333333333333
      0.222222222222     -0.111111111111      0.333333333333
     -0.111111111111     -0.222222222222      0.333333333333
     -0.222222222222      0.111111111111      0.333333333333
      0.111111111111      0.222222222222      0.333333333333
     -0.111111111111      0.333333333333      0.333333333333
     -0.333333333333     -0.111111111111      0.333333333333
      0.111111111111     -0.333333333333      0.333333333333
      0.333333333333     -0.111111111111      0.333333333333
     -0.111111111111     -0.333333333333      0.333333333333
     -0.333333333333      0.111111111111      0.333333333333
      0.111111111111      0.333333333333      0.333333333333
     -0.111111111111      0.444444444444      0.333333333333
     -0.444444444444     -0.111111111111      0.333333333333
      0.111111111111     -0.444444444444      0.333333333333
      0.444444444444     -0.111111111111      0.333333333333
     -0.111111111111     -0.444444444444      0.333333333333
     -0.444444444444      0.111111111111      0.333333333333
      0.111111111111      0.444444444444      0.333333333333
     -0.222222222222      0.222222222222      0.333333333333
     -0.222222222222     -0.222222222222      0.333333333333
      0.222222222222     -0.222222222222      0.333333333333
     -0.222222222222      0.333333333333      0.333333333333
     -0.333333333333     -0.222222222222      0.333333333333
      0.222222222222     -0.333333333333      0.333333333333
      0.333333333333     -0.222222222222      0.333333333333
     -0.222222222222     -0.333333333333      0.333333333333
     -0.333333333333      0.222222222222      0.333333333333
      0.222222222222      0.333333333333      0.333333333333
     -0.222222222222      0.444444444444      0.333333333333
     -0.444444444444     -0.222222222222      0.333333333333
      0.222222222222     -0.444444444444      0.333333333333
      0.444444444444     -0.222222222222      0.333333333333
     -0.222222222222     -0.444444444444      0.333333333333
     -0.444444444444      0.222222222222      0.333333333333
      0.222222222222      0.444444444444      0.333333333333
     -0.333333333333      0.333333333333      0.333333333333
     -0.333333333333     -0.333333333333      0.333333333333
      0.333333333333     -0.333333333333      0.333333333333
     -0.333333333333      0.444444444444      0.333333333333
     -0.444444444444     -0.333333333333      0.333333333333
      0.333333333333     -0.444444444444      0.333333333333
      0.444444444444     -0.333333333333      0.333333333333
     -0.333333333333     -0.444444444444      0.333333333333
     -0.444444444444      0.333333333333      0.333333333333
      0.333333333333      0.444444444444      0.333333333333
     -0.444444444444      0.444444444444      0.333333333333
     -0.444444444444     -0.444444444444      0.333333333333
      0.444444444444     -0.444444444444      0.333333333333
      0.000000000000      0.111111111111      0.444444444444
     -0.111111111111      0.000000000000      0.444444444444
      0.000000000000     -0.111111111111      0.444444444444
      0.000000000000      0.222222222222      0.444444444444
     -0.222222222222      0.000000000000      0.444444444444
     -0.000000000000     -0.222222222222      0.444444444444
      0.000000000000      0.333333333333      0.444444444444
     -0.333333333333      0.000000000000      0.444444444444
     -0.000000000000     -0.333333333333      0.444444444444
      0.000000000000      0.444444444444      0.444444444444
     -0.444444444444      0.000000000000      0.444444444444
      0.000000000000     -0.444444444444      0.444444444444
     -0.111111111111      0.111111111111      0.444444444444
     -0.111111111111     -0.111111111111      0.444444444444
      0.111111111111     -0.111111111111      0.444444444444
     -0.111111111111      0.222222222222      0.444444444444
     -0.222222222222     -0.111111111111      0.444444444444
      0.111111111111     -0.222222222222      0.444444444444
      0.222222222222     -0.111111111111      0.444444444444
     -0.111111111111     -0.222222222222      0.444444444444
     -0.222222222222      0.111111111111      0.444444444444
      0.111111111111      0.222222222222      0.444444444444
     -0.111111111111      0.333333333333      0.444444444444
     -0.333333333333     -0.111111111111      0.444444444444
      0.111111111111     -0.333333333333      0.444444444444
      0.333333333333     -0.111111111111      0.444444444444
     -0.111111111111     -0.333333333333      0.444444444444
     -0.333333333333      0.111111111111      0.444444444444
      0.111111111111      0.333333333333      0.444444444444
     -0.111111111111      0.444444444444      0.444444444444
     -0.444444444444     -0.111111111111      0.444444444444
      0.111111111111     -0.444444444444      0.444444444444
      0.444444444444     -0.111111111111      0.444444444444
     -0.111111111111     -0.444444444444      0.444444444444
     -0.444444444444      0.111111111111      0.444444444444
      0.111111111111      0.444444444444      0.444444444444
     -0.222222222222      0.222222222222      0.444444444444
     -0.222222222222     -0.222222222222      0.444444444444
      0.222222222222     -0.222222222222      0.444444444444
     -0.222222222222      0.333333333333      0.444444444444
     -0.333333333333     -0.222222222222      0.444444444444
      0.222222222222     -0.333333333333      0.444444444444
      0.333333333333     -0.222222222222      0.444444444444
     -0.222222222222     -0.333333333333      0.444444444444
     -0.333333333333      0.222222222222      0.444444444444
      0.222222222222      0.333333333333      0.444444444444
     -0.222222222222      0.444444444444      0.444444444444
     -0.444444444444     -0.222222222222      0.444444444444
      0.222222222222     -0.444444444444      0.444444444444
      0.444444444444     -0.222222222222      0.444444444444
     -0.222222222222     -0.444444444444      0.444444444444
     -0.444444444444      0.222222222222      0.444444444444
      0.222222222222      0.444444444444      0.444444444444
     -0.333333333333      0.333333333333      0.444444444444
     -0.333333333333     -0.333333333333      0.444444444444
      0.333333333333     -0.333333333333      0.444444444444
     -0.333333333333      0.444444444444      0.444444444444
     -0.444444444444     -0.333333333333      0.444444444444
      0.333333333333     -0.444444444444      0.444444444444
      0.444444444444     -0.333333333333      0.444444444444
     -0.333333333333     -0.444444444444      0.444444444444
     -0.444444444444      0.333333333333      0.444444444444
      0.333333333333      0.444444444444      0.444444444444
     -0.444444444444      0.444444444444      0.444444444444
     -0.444444444444     -0.444444444444      0.444444444444
      0.444444444444     -0.444444444444      0.444444444444
      0.000000000000      0.000000000000     -0.111111111111
     -0.111111111111      0.000000000000     -0.111111111111
     -0.000000000000     -0.111111111111     -0.111111111111
      0.111111111111     -0.000000000000     -0.111111111111
      0.000000000000      0.111111111111     -0.111111111111
     -0.222222222222      0.000000000000     -0.111111111111
     -0.000000000000     -0.222222222222     -0.111111111111
      0.222222222222     -0.000000000000     -0.111111111111
      0.000000000000      0.222222222222     -0.111111111111
     -0.333333333333     -0.000000000000     -0.111111111111
      0.000000000000     -0.333333333333     -0.111111111111
      0.333333333333      0.000000000000     -0.111111111111
     -0.000000000000      0.333333333333     -0.111111111111
     -0.444444444444     -0.000000000000     -0.111111111111
      0.000000000000     -0.444444444444     -0.111111111111
      0.444444444444      0.000000000000     -0.111111111111
     -0.000000000000      0.444444444444     -0.111111111111
     -0.111111111111     -0.111111111111     -0.111111111111
      0.111111111111     -0.111111111111     -0.111111111111
      0.111111111111      0.111111111111     -0.111111111111
     -0.111111111111      0.111111111111     -0.111111111111
     -0.222222222222     -0.111111111111     -0.111111111111
      0.111111111111     -0.222222222222     -0.111111111111
      0.222222222222      0.111111111111     -0.111111111111
     -0.111111111111      0.222222222222     -0.111111111111
     -0.222222222222      0.111111111111     -0.111111111111
      0.111111111111      0.222222222222     -0.111111111111
      0.222222222222     -0.111111111111     -0.111111111111
     -0.111111111111     -0.222222222222     -0.111111111111
     -0.333333333333     -0.111111111111     -0.111111111111
      0.111111111111     -0.333333333333     -0.111111111111
      0.333333333333      0.111111111111     -0.111111111111
     -0.111111111111      0.333333333333     -0.111111111111
     -0.333333333333      0.111111111111     -0.111111111111
      0.111111111111      0.333333333333     -0.111111111111
      0.333333333333     -0.111111111111     -0.111111111111
     -0.111111111111     -0.333333333333     -0.111111111111
     -0.444444444444     -0.111111111111     -0.111111111111
      0.111111111111     -0.444444444444     -0.111111111111
      0.444444444444      0.111111111111     -0.111111111111
     -0.111111111111      0.444444444444     -0.111111111111
     -0.444444444444      0.111111111111     -0.111111111111
      0.111111111111      0.444444444444     -0.111111111111
      0.444444444444     -0.111111111111     -0.111111111111
     -0.111111111111     -0.444444444444     -0.111111111111
     -0.222222222222     -0.222222222222     -0.111111111111
      0.222222222222     -0.222222222222     -0.111111111111
      0.222222222222      0.222222222222     -0.111111111111
     -0.222222222222      0.222222222222     -0.111111111111
     -0.333333333333     -0.222222222222     -0.111111111111
      0.222222222222     -0.333333333333     -0.111111111111
      0.333333333333      0.222222222222     -0.111111111111
     -0.222222222222      0.333333333333     -0.111111111111
     -0.333333333333      0.222222222222     -0.111111111111
      0.222222222222      0.333333333333     -0.111111111111
      0.333333333333     -0.222222222222     -0.111111111111
     -0.222222222222     -0.333333333333     -0.111111111111
     -0.444444444444     -0.222222222222     -0.111111111111
      0.222222222222     -0.444444444444     -0.111111111111
      0.444444444444      0.222222222222     -0.111111111111
     -0.222222222222      0.444444444444     -0.111111111111
     -0.444444444444      0.222222222222     -0.111111111111
      0.222222222222      0.444444444444     -0.111111111111