Ti   Ba   O 
   1.00000000000000     
   3.9944999999999999   0.0000000000000000   0.0000000000000000
   0.0000000000000000   3.9944999999999999  -0.0000000000000000
   0.0000000000000000   0.0000000000000000   4.0335000000000001
Ti   Ba   O 
1  1  3  
Direct
  0.5000000000000000  0.5000000000000000  0.5142700000000000  
  0.0000000000000000 -0.0000000000000000  0.0000000000000000  
  0.5000000000000000  0.5000000000000000  0.9744770000000000  
  0.5000000000000000  0.0000000000000000  0.4876180000000000  
  0.0000000000000000  0.5000000000000000  0.4876180000000000  
