  GNU nano 7.2                                                         KPOINTS                                                                   
K-point
30
Line-mode
rec
0       0       0
0.5     0       0

0.5     0       0
0.5     0.5     0

0.5     0.5     0
0.5     0.5     0.5

0.5     0.5     0.5
0       0       0

