Ba1 Ti1 O3
4.0076816356682814
   0.6923367  0.5989676 -0.4023776
  -0.5374349  0.8001396  0.2663462
   0.4814910  0.0318505  0.8758721
Ba Ti O
1 1 3
direct
   0.5000000000000000    0.5000000000000000    0.5000000000000000 Ba2+
   0.0000000000000000    0.0000000000000000    0.0000000000000000 Ti4+
   0.5000000000000000    0.0000000000000000    0.0000000000000000 O2-
   0.0000000000000000    0.5000000000000000    0.0000000000000000 O2-
   0.0000000000000000    0.0000000000000000    0.5000000000000000 O2-
