Cr6 I18
1.0
   3.4842743399480471   -6.0349401842985317    0.0000000000000000
   3.4842743399480471    6.0349401842985317    0.0000000000000000
   0.0000000000000000    0.0000000000000000   20.7558563476783853
Cr I
2 6
direct
   0.8894759250000001    0.1105240749999999    0.3333333333333333 Cr3+
   0.2226066200000001    0.7773933799999999    0.3333333333333333 Cr3+
   0.2009244500000003    0.0886884000000001    0.2582026099999999 I-
   0.9113115999999999    0.7990755499999997    0.4084640566666666 I-
   0.5558263800000003    0.8000093700000002    0.2579996699999998 I-
   0.1999906299999998    0.4441736199999997    0.4086669966666667 I-
   0.5560927500000004    0.0879245800000001    0.4089861699999998 I-
   0.9120754199999999    0.4439072499999996    0.2576804966666669 I-
