K-point
0
G
9      9      15
0      0      0

