TiO2
1.0
-2.296801080   -2.296801080   3.248167238
2.296801080   2.296801080   3.248167238
-2.092117818   2.092117818   0.000000000
   Ti    O
    2    4
Cartesian
0.000000000   0.000000000   0.000000000
-1.046059861   1.046059861   3.248163726
0.000000000   0.000000000   1.980081302
0.000000000   0.000000000   -1.980081302
-2.446191423   -0.354071701   3.248167468
2.446191423   0.354071701   -3.248167468
