K-point
0
G
20      20     20 
0       0       0
