Ba1 Ti1 O3
1.0
   4.0076816356682814    0.0000000000000000    0.0000000000000002
   0.0000000000000002    4.0076816356682814    0.0000000000000002
   0.0000000000000000    0.0000000000000000    4.0076816356682814
Ba Ti O
1 1 3
direct
   0.5000000000000000    0.5000000000000000    0.5000000000000000 Ba2+
   0.0000000000000000    0.0000000000000000    0.0000000000000000 Ti4+
   0.5000000000000000    0.0000000000000000    0.0000000000000000 O2-
   0.0000000000000000    0.5000000000000000    0.0000000000000000 O2-
   0.0000000000000000    0.0000000000000000    0.5000000000000000 O2-
