H  O  Cu
 1.0000000000000000
    10.0000000000186677    0.0000000000000000    0.0000000000000000
     0.0000000000000000   10.0000000000186677    0.0000000000000000
     0.0000000000000000    0.0000000000000000   10.0000000000186677
 H   O   Cu
  12   6   1
Cartesian
0.9037351806097801 2.791096359888482 0.23582209907210394
8.184002113054914 1.4411028122919924 8.519596576544142
9.096264819407175 7.208903640118271 9.764177900946972
1.6823510279556309 8.826990408251026 8.166979690874957
1.8159978869680597 8.558897187695223 1.480403423458233
8.381672643704771 7.960559200434465 8.62731430323864
7.634566406644707 9.86469321698301 1.3973674989281049
9.36334223785553 1.138763465106177 7.578408663371537
8.317648972066962 1.1730095917611758 1.8330203091189106
1.6183273563121843 2.0394407995722883 1.3726856967804355
0.6366577621674435 8.861236534881037 2.4215913366308373
2.3654335933778867 0.13530678302919263 8.602632501065763
8.989398418950246 8.064382457123948 9.35546383255231
8.40847383912728 0.40800865703501343 1.270138405885788
9.035653821939107 1.0143634249796367 8.465796152401255
1.0106015810580404 1.9356175428919233 0.644536167452975
1.5915261608870261 9.591991342961318 8.729861594102793
0.9643461780695621 8.985636575011245 1.5342038476125357
0.0 0.0 0.0
