H  O  Cu
 1.0000000000000000
    10.0000000000186677    0.0000000000000000    0.0000000000000000
     0.0000000000000000   10.0000000000186677    0.0000000000000000
     0.0000000000000000    0.0000000000000000   10.0000000000186677
 H   O   Cu
  12   6   1
Cartesian
  9.2305705200172294  0.0000000000000000  2.8408707300049299 !up
  7.3591292700137378  9.2305705200172294  0.0000000000000000
  0.7694294800014375  0.0000000000000000  7.1591292700137378 !dn
  0.0000000000000000  2.6408707300049299  9.2305705200172294
  2.6408707300049299  0.7694294800014375  0.0000000000000000
  9.2305705200172294  0.0000000000000000  7.1591292700137378 !dn
  0.0000000000000000  7.3591292700137378  9.2305705200172294
  7.3591292700137378  0.7694294800014375  0.0000000000000000
  0.0000000000000000  7.3591292700137378  0.7694294800014375
  0.7694294800014375  0.0000000000000000  2.8408707300049299 !up
  2.6408707300049299  9.2305705200172294  0.0000000000000000
  0.0000000000000000  2.6408707300049299  0.7694294800014375
  0.0000000000000000  0.0000000000000000  7.7233011400147921 !dn
  0.0000000000000000  7.9233011400147921  0.0000000000000000
  7.9233011400147921  0.0000000000000000  0.0000000000000000
  0.0000000000000000  0.0000000000000000  2.2766988600038760 !up
  0.0000000000000000  2.0766988600038760  0.0000000000000000
  2.0766988600038760  0.0000000000000000  0.0000000000000000
  0.0000000000000000  0.0000000000000000  0.0000000000000000
